
Gurobi 9.1.2 (linux64, gurobi_cl) logging started Fri Jul 30 13:52:56 2021

Using license file /opt/gurobi/gurobi.lic
Set parameter TimeLimit to value 600
Set parameter MIPFocus to value 1
Set parameter LogFile to value 912-MIPFocus1-glass4-2.log
Set parameter Seed to value 2

Gurobi Optimizer version 9.1.2 build v9.1.2rc0 (linux64)
Copyright (c) 2021, Gurobi Optimization, LLC

Read MPS format model from file /nfs/models/mip/glass4.mps.bz2
Reading time = 0.00 seconds
glass4: 396 rows, 322 columns, 1815 nonzeros
Thread count: 4 physical cores, 8 logical processors, using up to 8 threads
Optimize a model with 396 rows, 322 columns and 1815 nonzeros
Model fingerprint: 0x0a9d9037
Variable types: 20 continuous, 302 integer (0 binary)
Coefficient statistics:
  Matrix range     [1e+00, 8e+06]
  Objective range  [1e+00, 1e+06]
  Bounds range     [1e+00, 8e+02]
  RHS range        [1e+00, 8e+06]
Presolve removed 6 rows and 6 columns
Presolve time: 0.00s
Presolved: 390 rows, 316 columns, 1803 nonzeros
Variable types: 19 continuous, 297 integer (297 binary)
Found heuristic solution: objective 3.133356e+09

Root relaxation: objective 8.000024e+08, 72 iterations, 0.00 seconds

    Nodes    |    Current Node    |     Objective Bounds      |     Work
 Expl Unexpl |  Obj  Depth IntInf | Incumbent    BestBd   Gap | It/Node Time

     0     0 8.0000e+08    0   72 3.1334e+09 8.0000e+08  74.5%     -    0s
H    0     0                    2.150017e+09 8.0000e+08  62.8%     -    0s
H    0     0                    2.100017e+09 8.0000e+08  61.9%     -    0s
     0     0 8.0000e+08    0   72 2.1000e+09 8.0000e+08  61.9%     -    0s
H    0     0                    2.050016e+09 8.0000e+08  61.0%     -    0s
     0     0 8.0000e+08    0   72 2.0500e+09 8.0000e+08  61.0%     -    0s
     0     0 8.0000e+08    0   76 2.0500e+09 8.0000e+08  61.0%     -    0s
H    0     0                    2.000016e+09 8.0000e+08  60.0%     -    0s
     0     0 8.0000e+08    0   75 2.0000e+09 8.0000e+08  60.0%     -    0s
     0     0 8.0000e+08    0   97 2.0000e+09 8.0000e+08  60.0%     -    0s
     0     0 8.0000e+08    0   91 2.0000e+09 8.0000e+08  60.0%     -    0s
     0     0 8.0000e+08    0   89 2.0000e+09 8.0000e+08  60.0%     -    0s
     0     0 8.0000e+08    0   96 2.0000e+09 8.0000e+08  60.0%     -    0s
     0     0 8.0000e+08    0  102 2.0000e+09 8.0000e+08  60.0%     -    0s
     0     0 8.0000e+08    0  113 2.0000e+09 8.0000e+08  60.0%     -    0s
     0     0 8.0000e+08    0   70 2.0000e+09 8.0000e+08  60.0%     -    0s
H    0     0                    1.780015e+09 8.0000e+08  55.1%     -    0s
H    0     2                    1.750014e+09 8.0000e+08  54.3%     -    0s
     0     2 8.0000e+08    0   62 1.7500e+09 8.0000e+08  54.3%     -    0s
H   11    16                    1.750014e+09 8.0000e+08  54.3%  47.5    0s
H  235   257                    1.750014e+09 8.0000e+08  54.3%   9.7    0s
H 1094   858                    1.733347e+09 8.0001e+08  53.8%   9.7    2s
H 1100   819                    1.600013e+09 8.0001e+08  50.0%   9.6    2s
H 1140   813                    1.600013e+09 8.0001e+08  50.0%  13.2    2s
H 1175   795                    1.578274e+09 8.0001e+08  49.3%  14.8    3s
H 1177   757                    1.575013e+09 8.0001e+08  49.2%  14.9    3s
H 1223   744                    1.500013e+09 8.0001e+08  46.7%  15.6    3s
H 1263   722                    1.475013e+09 8.0001e+08  45.8%  16.3    3s
  1557   813 1.3000e+09   45   48 1.4750e+09 8.0001e+08  45.8%  19.3    5s
H 1559   781                    1.475013e+09 8.0001e+08  45.8%  19.3    5s
  2876  1201 1.2000e+09   36   38 1.4750e+09 9.0001e+08  39.0%  29.2   10s
  5857  2675 infeasible   49      1.4750e+09 9.0001e+08  39.0%  35.1   15s
  8625  4096 1.1000e+09   31   47 1.4750e+09 9.0001e+08  39.0%  35.8   20s
 12643  5897 infeasible   36      1.4750e+09 9.0001e+08  39.0%  35.6   25s
 17626  7942 infeasible   35      1.4750e+09 9.0001e+08  39.0%  35.9   31s
 21236  9576 1.4000e+09   37   32 1.4750e+09 9.0001e+08  39.0%  35.4   35s
 24885 11073 1.1000e+09   46   37 1.4750e+09 9.0001e+08  39.0%  35.3   41s
 29057 12804 infeasible   50      1.4750e+09 9.0001e+08  39.0%  35.1   45s
 31102 14055 infeasible   43      1.4750e+09 9.0001e+08  39.0%  35.1   50s
 36675 15644 9.0001e+08   41   54 1.4750e+09 9.0001e+08  39.0%  34.8   55s
*38756 15731              67    1.400013e+09 9.0001e+08  35.7%  34.7   56s
H40588 13342                    1.200013e+09 9.0001e+08  25.0%  34.9   59s
 41581 12831 infeasible   44      1.2000e+09 9.0001e+08  25.0%  35.0   60s
 49238  7799 1.0000e+09   35   60 1.2000e+09 1.0000e+09  16.7%  37.0   65s

Cutting planes:
  Gomory: 57
  Cover: 15
  Implied bound: 49
  MIR: 77
  Flow cover: 376
  GUB cover: 2
  RLT: 175
  Relax-and-lift: 178

Explored 61027 nodes (2196588 simplex iterations) in 69.35 seconds
Thread count was 8 (of 8 available processors)

Solution count 10: 1.20001e+09 1.40001e+09 1.47501e+09 ... 1.73335e+09

Optimal solution found (tolerance 1.00e-04)
Best objective 1.200012600000e+09, best bound 1.200005170651e+09, gap 0.0006%
